120 1000
1 465 8 9 16 18 19 33 34 37 38 42 43 51 52 59 64 69 72 76 81 82 83 110 113
2 258 8 9 16 18 19 33 34 37 38 41 42 43 51 52 59 64 69 72 76 81 82 83 109 110 113 115
3 277 4 6 7 8 9 11 14 15 16 18 19 24 25 27 28 30 33 34 35 36 37 38 41 42 43 48 49 51 52 53 58 59 60 61 62 64 65 67 68 69 71 72 75 76 78 79 81 82 83 84 88 90 92 94 95 100 101 102 105 107 108 109 110 111 112 113 115 117 118
4 367 7 8 9 14 15 16 18 19 25 27 28 30 33 34 35 36 37 38 41 42 43 49 51 52 53 58 59 61 62 64 65 67 68 69 71 72 76 78 79 81 82 83 84 88 90 94 95 100 101 105 107 108 109 110 111 112 113 115 117 118
5 279 8 9 16 18 19 33 34 37 38 42 43 51 52 59 64 69 72 76 81 82 83 110 113
6 354 8 9 16 18 19 25 33 34 37 38 41 42 43 49 51 52 59 61 64 68 69 72 76 78 81 82 83 100 101 109 110 111 112 113 115
7 443 8 9 15 16 18 19 25 27 30 33 34 35 36 37 38 41 42 43 49 51 52 53 59 61 64 65 67 68 69 71 72 76 78 79 81 82 83 88 90 94 95 100 101 105 109 110 111 112 113 115 118
8 261 9 10 11 13 14 15 16 18 19 20 24 25 27 28 30 33 34 35 36 37 38 41 42 43 47 48 49 50 51 52 53 55 58 59 60 61 62 64 65 67 68 69 71 72 75 76 77 78 79 81 82 83 84 88 90 92 94 95 100 101 102 104 105 107 108 109 110 111 112 113 115 116 117 118
9 296 10 11 13 14 15 16 18 19 20 23 24 25 27 28 29 30 32 33 34 35 36 37 38 39 41 42 43 45 47 48 49 50 51 52 53 55 56 57 58 59 60 61 62 64 65 67 68 69 71 72 73 74 75 76 77 78 79 80 81 82 83 84 88 90 92 94 95 96 98 100 101 102 103 104 105 106 107 108 109 110 111 112 113 115 116 117 118 119 120
10 479 16 18 19 33 34 37 38 42 43 51 52 59 64 69 72 76 81 82 83 110 113
11 251 16 18 19 25 33 34 37 38 41 42 43 49 51 52 53 59 61 64 68 69 72 76 78 79 81 82 83 95 100 101 109 110 111 112 113 115
12 270
13 372 16 18 19 25 33 34 37 38 41 42 43 51 52 59 61 64 69 72 76 78 81 82 83 101 109 110 113 115
14 306 16 18 19 25 27 30 33 34 37 38 41 42 43 49 51 52 53 59 61 64 68 69 72 76 78 79 81 82 83 95 100 101 109 110 111 112 113 115 118
15 322 16 18 19 25 27 30 33 34 35 37 38 41 42 43 49 51 52 53 59 61 64 68 69 72 76 78 79 81 82 83 94 95 100 101 109 110 111 112 113 115 118
16 443 18 19 20 24 25 27 28 30 33 34 35 36 37 38 41 42 43 47 48 49 50 51 52 53 55 58 59 60 61 62 64 65 67 68 69 71 72 75 76 77 78 79 81 82 83 84 88 90 92 94 95 100 101 102 104 105 107 108 109 110 111 112 113 115 116 117 118
17 250
18 307 19 20 24 25 27 28 30 33 34 35 36 37 38 41 42 43 47 48 49 50 51 52 53 55 58 59 60 61 62 64 65 67 68 69 71 72 75 76 77 78 79 81 82 83 84 88 90 92 94 95 100 101 102 104 105 107 108 109 110 111 112 113 115 116 117 118
19 446 20 23 24 25 27 28 29 30 32 33 34 35 36 37 38 39 41 42 43 47 48 49 50 51 52 53 55 56 57 58 59 60 61 62 64 65 67 68 69 71 72 74 75 76 77 78 79 80 81 82 83 84 88 90 92 94 95 96 98 100 101 102 104 105 107 108 109 110 111 112 113 115 116 117 118 119
20 258 33 34 37 38 41 42 43 51 52 59 64 69 72 76 81 82 83 101 109 110 113 115
21 296
22 487
23 250 33 34 37 43 52 64 69 72 76 81 83 110
24 263 25 33 34 37 38 41 42 43 49 51 52 59 61 64 68 69 72 76 78 81 82 83 100 101 109 110 111 112 113 115
25 446 27 28 30 33 34 35 36 37 38 41 42 43 48 49 51 52 53 58 59 60 61 62 64 65 67 68 69 71 72 75 76 77 78 79 81 82 83 84 88 90 92 94 95 100 101 102 105 107 108 109 110 111 112 113 115 116 117 118
26 251
27 303 28 30 33 34 35 36 37 38 41 42 43 49 51 52 53 58 59 61 62 64 65 67 68 69 71 72 76 78 79 81 82 83 84 88 90 94 95 100 101 105 107 108 109 110 111 112 113 115 117 118
28 463 30 33 34 37 38 41 42 43 49 51 52 53 59 61 64 68 69 72 76 78 79 81 82 83 95 100 101 109 110 111 112 113 115 118
29 267 33 34 37 42 43 51 52 64 69 72 76 81 83 110 113
30 270 33 34 35 36 37 38 41 42 43 49 51 52 53 58 59 61 62 64 65 67 68 69 71 72 76 78 79 81 82 83 84 88 90 94 95 100 101 105 109 110 111 112 113 115 117 118
31 472
32 261 33 34 37 43 52 64 69 72 76 81 83 110 113
33 267 34 35 36 37 38 39 41 42 43 47 48 49 50 51 52 53 55 56 57 58 59 60 61 62 64 65 67 68 69 71 72 74 75 76 77 78 79 80 81 82 83 84 88 90 92 94 95 96 98 100 101 102 104 105 107 108 109 110 111 112 113 115 116 117 118 119 120
34 426 35 36 37 38 39 41 42 43 47 48 49 50 51 52 53 55 56 57 58 59 60 61 62 64 65 67 68 69 71 72 74 75 76 77 78 79 80 81 82 83 84 88 90 92 94 95 96 98 100 101 102 104 105 107 108 109 110 111 112 113 115 116 117 118 119
35 271 36 37 38 41 42 43 49 51 52 53 58 59 61 64 65 67 68 69 71 72 76 78 79 81 82 83 84 88 90 94 95 100 101 105 109 110 111 112 113 115 118
36 303 37 38 41 42 43 49 51 52 53 59 61 64 68 69 72 76 78 79 81 82 83 94 95 100 101 109 110 111 112 113 115 118
37 484 38 39 41 42 43 47 48 49 50 51 52 53 55 56 57 58 59 60 61 62 64 65 67 68 69 71 72 74 75 76 77 78 79 80 81 82 83 84 88 90 92 94 95 96 98 100 101 102 104 105 107 108 109 110 111 112 113 115 116 117 118 119
38 252 41 42 43 47 48 49 50 51 52 53 55 58 59 60 61 62 64 65 67 68 69 71 72 75 76 77 78 79 81 82 83 84 88 90 92 94 95 100 101 102 104 105 107 108 109 110 111 112 113 115 116 117 118
39 264 43 52 64 72 81 110
40 363
41 274 42 43 47 48 49 50 51 52 53 55 58 59 60 61 62 64 65 67 68 69 71 72 75 76 77 78 79 81 82 83 84 88 90 92 94 95 100 101 102 105 107 108 109 110 111 112 113 115 116 117 118
42 363 43 47 48 49 50 51 52 53 55 56 57 58 59 60 61 62 64 65 67 68 69 71 72 74 75 76 77 78 79 80 81 82 83 84 88 90 92 94 95 100 101 102 104 105 107 108 109 110 111 112 113 115 116 117 118
43 422 47 48 49 50 51 52 53 55 56 57 58 59 60 61 62 64 65 67 68 69 71 72 74 75 76 77 78 79 80 81 82 83 84 88 90 92 94 95 96 98 100 101 102 104 105 107 108 109 110 111 112 113 115 116 117 118 119
44 274
45 304
46 473
47 260 51 52 59 64 69 72 76 78 81 82 83 101 109 110 113 115
48 267 49 51 52 59 61 64 68 69 72 76 78 81 82 83 100 101 109 110 111 112 113 115
49 362 51 52 53 58 59 60 61 62 64 65 67 68 69 71 72 75 76 78 79 81 82 83 84 88 90 92 94 95 100 101 102 105 107 108 109 110 111 112 113 115 117 118
50 252 51 52 59 64 69 72 76 78 81 82 83 101 109 110 113 115
51 386 52 53 55 56 57 58 59 60 61 62 64 65 67 68 69 71 72 74 75 76 77 78 79 80 81 82 83 84 88 90 92 94 95 100 101 102 104 105 107 108 109 110 111 112 113 115 116 117 118
52 469 53 55 56 57 58 59 60 61 62 64 65 67 68 69 71 72 74 75 76 77 78 79 80 81 82 83 84 88 90 92 94 95 96 98 100 101 102 104 105 107 108 109 110 111 112 113 115 116 117 118 119 120
53 257 58 59 61 62 64 65 67 68 69 71 72 75 76 78 79 81 82 83 84 88 90 92 94 95 100 101 102 105 107 108 109 110 111 112 113 115 117 118
54 274
55 426 59 64 69 72 76 78 81 82 83 101 109 110 113 115
56 271 64 69 72 76 81 83 110 113
57 303 64 69 72 76 81 83 110 113
58 458 59 61 64 68 69 72 76 78 79 81 82 83 95 100 101 109 110 111 112 113 115 118
59 255 60 61 62 64 65 67 68 69 71 72 75 76 77 78 79 81 82 83 84 88 90 92 94 95 100 101 102 104 105 107 108 109 110 111 112 113 115 116 117 118
60 287 61 64 68 69 72 76 78 81 82 83 100 101 109 110 111 112 113 115
61 373 62 64 65 67 68 69 71 72 75 76 77 78 79 81 82 83 84 88 90 92 94 95 100 101 102 105 107 108 109 110 111 112 113 115 116 117 118
62 262 64 68 69 72 76 78 79 81 82 83 95 100 101 109 110 111 112 113 115 118
63 365
64 387 65 67 68 69 71 72 74 75 76 77 78 79 80 81 82 83 84 88 90 92 94 95 96 98 100 101 102 104 105 107 108 109 110 111 112 113 115 116 117 118 119
65 276 67 68 69 72 76 78 79 81 82 83 94 95 100 101 105 109 110 111 112 113 115 118
66 337
67 362 68 69 71 72 76 78 79 81 82 83 88 90 94 95 100 101 105 109 110 111 112 113 115 118
68 305 69 71 72 75 76 78 79 81 82 83 84 88 90 92 94 95 100 101 102 105 107 108 109 110 111 112 113 115 117 118
69 333 71 72 74 75 76 77 78 79 80 81 82 83 84 88 90 92 94 95 96 98 100 101 102 104 105 107 108 109 110 111 112 113 115 116 117 118 119
70 443
71 255 72 76 78 79 81 82 83 94 95 100 101 105 109 110 111 112 113 115 118
72 302 74 75 76 77 78 79 80 81 82 83 84 88 90 92 94 95 96 98 100 101 102 104 105 107 108 109 110 111 112 113 115 116 117 118 119
73 408
74 270 76 81 83 110 113
75 322 76 78 81 82 83 100 101 109 110 111 112 113 115
76 378 77 78 79 80 81 82 83 84 88 90 92 94 95 96 100 101 102 104 105 107 108 109 110 111 112 113 115 116 117 118
77 292 78 81 82 83 100 101 109 110 111 112 113 115
78 330 79 81 82 83 84 88 90 92 94 95 100 101 102 105 107 108 109 110 111 112 113 115 116 117 118
79 472 81 82 83 84 88 90 92 94 95 100 101 102 105 107 108 109 110 111 112 113 115 117 118
80 251 81 82 83 110 113
81 277 82 83 84 88 90 92 94 95 96 98 100 101 102 104 105 107 108 109 110 111 112 113 115 116 117 118 119
82 483 83 84 88 90 92 94 95 100 101 102 104 105 107 108 109 110 111 112 113 115 116 117 118
83 251 84 88 90 92 94 95 96 98 100 101 102 104 105 107 108 109 110 111 112 113 115 116 117 118 119
84 266 95 100 101 109 110 111 112 113 115 118
85 387
86 279
87 334
88 404 94 95 100 101 105 109 110 111 112 113 115 118
89 264
90 332 94 95 100 101 105 109 110 111 112 113 115 118
91 440
92 250 95 100 101 109 110 111 112 113 115
93 310
94 411 95 100 101 105 109 110 111 112 113 115 118
95 272 100 101 102 105 107 108 109 110 111 112 113 115 117 118
96 317 110
97 400
98 256 110
99 344
100 433 101 102 105 107 108 109 110 111 112 113 115 117 118
101 282 102 105 107 108 109 110 111 112 113 115 116 117 118
102 285 109 110 111 112 113 115 118
103 453
104 266 110 113
105 281 109 110 111 112 113 115 118
106 425
107 269 109 110 111 112 113 115 118
108 306 109 110 111 112 113 115 118
109 482 110 111 112 113 115 116 117 118
110 256 111 112 113 115 116 117 118 119
111 262 112 113 115 117 118
112 386 113 115 117 118
113 294 115 116 117 118
114 320
115 357 116 117 118
116 280
117 363 118
118 400
119 278
120 322
